(declare-fun e () String)
(declare-fun c () String)
(declare-fun g () String)
(declare-fun b () String)
(declare-fun f () String)
(declare-fun a () String)
(declare-fun h () String)
(assert (= (str.++ "db" g h) (str.++ e "a" a "d")))
(assert (= (str.++ g a "aaag") (str.++ "gb" b e c)))
(assert (= h (str.++ "ba" f)))

(check-sat)
